c *********************************
c * Circuit generated by BenCGen
c *
c * CarrySkipAdder_117_117_117_InOut_G4T
c *
c * Ports with 1 gate(s): 33
c * Ports with 2 gate(s): 646
c * Ports with 4 gate(s): 29
c * Total gates: 708
c *********************************
p cnf 942 2383
1 354 0
-1 -354 0
1 -353 0
354 -353 0
-1 -354 353 0
1 118 -357 0
-1 118 357 0
1 -118 357 0
-1 -118 -357 0
357 353 -235 0
-357 353 235 0
357 -353 235 0
-357 -353 -235 0
353 -358 0
357 -358 0
-353 -357 358 0
118 -359 0
1 -359 0
-118 -1 359 0
-358 356 0
-359 356 0
358 359 -356 0
2 119 -361 0
-2 119 361 0
2 -119 361 0
-2 -119 -361 0
361 356 -236 0
-361 356 236 0
361 -356 236 0
-361 -356 -236 0
356 -362 0
361 -362 0
-356 -361 362 0
119 -363 0
2 -363 0
-119 -2 363 0
-362 360 0
-363 360 0
362 363 -360 0
3 120 -365 0
-3 120 365 0
3 -120 365 0
-3 -120 -365 0
365 360 -237 0
-365 360 237 0
365 -360 237 0
-365 -360 -237 0
360 -366 0
365 -366 0
-360 -365 366 0
120 -367 0
3 -367 0
-120 -3 367 0
-366 364 0
-367 364 0
366 367 -364 0
4 121 -368 0
-4 121 368 0
4 -121 368 0
-4 -121 -368 0
368 364 -238 0
-368 364 238 0
368 -364 238 0
-368 -364 -238 0
364 -369 0
368 -369 0
-364 -368 369 0
121 -370 0
4 -370 0
-121 -4 370 0
-369 355 0
-370 355 0
369 370 -355 0
357 -371 0
361 -371 0
365 -371 0
368 -371 0
-357 -361 -365 -368 371 0
370 -372 0
-370 372 0
353 -373 0
371 -373 0
-353 -371 373 0
-373 374 0
-355 374 0
373 355 -374 0
5 122 -377 0
-5 122 377 0
5 -122 377 0
-5 -122 -377 0
377 374 -239 0
-377 374 239 0
377 -374 239 0
-377 -374 -239 0
374 -378 0
377 -378 0
-374 -377 378 0
122 -379 0
5 -379 0
-122 -5 379 0
-378 376 0
-379 376 0
378 379 -376 0
6 123 -381 0
-6 123 381 0
6 -123 381 0
-6 -123 -381 0
381 376 -240 0
-381 376 240 0
381 -376 240 0
-381 -376 -240 0
376 -382 0
381 -382 0
-376 -381 382 0
123 -383 0
6 -383 0
-123 -6 383 0
-382 380 0
-383 380 0
382 383 -380 0
7 124 -385 0
-7 124 385 0
7 -124 385 0
-7 -124 -385 0
385 380 -241 0
-385 380 241 0
385 -380 241 0
-385 -380 -241 0
380 -386 0
385 -386 0
-380 -385 386 0
124 -387 0
7 -387 0
-124 -7 387 0
-386 384 0
-387 384 0
386 387 -384 0
8 125 -388 0
-8 125 388 0
8 -125 388 0
-8 -125 -388 0
388 384 -242 0
-388 384 242 0
388 -384 242 0
-388 -384 -242 0
384 -389 0
388 -389 0
-384 -388 389 0
125 -390 0
8 -390 0
-125 -8 390 0
-389 375 0
-390 375 0
389 390 -375 0
377 -391 0
381 -391 0
385 -391 0
388 -391 0
-377 -381 -385 -388 391 0
390 -392 0
-390 392 0
374 -393 0
391 -393 0
-374 -391 393 0
-393 394 0
-375 394 0
393 375 -394 0
9 126 -397 0
-9 126 397 0
9 -126 397 0
-9 -126 -397 0
397 394 -243 0
-397 394 243 0
397 -394 243 0
-397 -394 -243 0
394 -398 0
397 -398 0
-394 -397 398 0
126 -399 0
9 -399 0
-126 -9 399 0
-398 396 0
-399 396 0
398 399 -396 0
10 127 -401 0
-10 127 401 0
10 -127 401 0
-10 -127 -401 0
401 396 -244 0
-401 396 244 0
401 -396 244 0
-401 -396 -244 0
396 -402 0
401 -402 0
-396 -401 402 0
127 -403 0
10 -403 0
-127 -10 403 0
-402 400 0
-403 400 0
402 403 -400 0
11 128 -405 0
-11 128 405 0
11 -128 405 0
-11 -128 -405 0
405 400 -245 0
-405 400 245 0
405 -400 245 0
-405 -400 -245 0
400 -406 0
405 -406 0
-400 -405 406 0
128 -407 0
11 -407 0
-128 -11 407 0
-406 404 0
-407 404 0
406 407 -404 0
12 129 -408 0
-12 129 408 0
12 -129 408 0
-12 -129 -408 0
408 404 -246 0
-408 404 246 0
408 -404 246 0
-408 -404 -246 0
404 -409 0
408 -409 0
-404 -408 409 0
129 -410 0
12 -410 0
-129 -12 410 0
-409 395 0
-410 395 0
409 410 -395 0
397 -411 0
401 -411 0
405 -411 0
408 -411 0
-397 -401 -405 -408 411 0
410 -412 0
-410 412 0
394 -413 0
411 -413 0
-394 -411 413 0
-413 414 0
-395 414 0
413 395 -414 0
13 130 -417 0
-13 130 417 0
13 -130 417 0
-13 -130 -417 0
417 414 -247 0
-417 414 247 0
417 -414 247 0
-417 -414 -247 0
414 -418 0
417 -418 0
-414 -417 418 0
130 -419 0
13 -419 0
-130 -13 419 0
-418 416 0
-419 416 0
418 419 -416 0
14 131 -421 0
-14 131 421 0
14 -131 421 0
-14 -131 -421 0
421 416 -248 0
-421 416 248 0
421 -416 248 0
-421 -416 -248 0
416 -422 0
421 -422 0
-416 -421 422 0
131 -423 0
14 -423 0
-131 -14 423 0
-422 420 0
-423 420 0
422 423 -420 0
15 132 -425 0
-15 132 425 0
15 -132 425 0
-15 -132 -425 0
425 420 -249 0
-425 420 249 0
425 -420 249 0
-425 -420 -249 0
420 -426 0
425 -426 0
-420 -425 426 0
132 -427 0
15 -427 0
-132 -15 427 0
-426 424 0
-427 424 0
426 427 -424 0
16 133 -428 0
-16 133 428 0
16 -133 428 0
-16 -133 -428 0
428 424 -250 0
-428 424 250 0
428 -424 250 0
-428 -424 -250 0
424 -429 0
428 -429 0
-424 -428 429 0
133 -430 0
16 -430 0
-133 -16 430 0
-429 415 0
-430 415 0
429 430 -415 0
417 -431 0
421 -431 0
425 -431 0
428 -431 0
-417 -421 -425 -428 431 0
430 -432 0
-430 432 0
414 -433 0
431 -433 0
-414 -431 433 0
-433 434 0
-415 434 0
433 415 -434 0
17 134 -437 0
-17 134 437 0
17 -134 437 0
-17 -134 -437 0
437 434 -251 0
-437 434 251 0
437 -434 251 0
-437 -434 -251 0
434 -438 0
437 -438 0
-434 -437 438 0
134 -439 0
17 -439 0
-134 -17 439 0
-438 436 0
-439 436 0
438 439 -436 0
18 135 -441 0
-18 135 441 0
18 -135 441 0
-18 -135 -441 0
441 436 -252 0
-441 436 252 0
441 -436 252 0
-441 -436 -252 0
436 -442 0
441 -442 0
-436 -441 442 0
135 -443 0
18 -443 0
-135 -18 443 0
-442 440 0
-443 440 0
442 443 -440 0
19 136 -445 0
-19 136 445 0
19 -136 445 0
-19 -136 -445 0
445 440 -253 0
-445 440 253 0
445 -440 253 0
-445 -440 -253 0
440 -446 0
445 -446 0
-440 -445 446 0
136 -447 0
19 -447 0
-136 -19 447 0
-446 444 0
-447 444 0
446 447 -444 0
20 137 -448 0
-20 137 448 0
20 -137 448 0
-20 -137 -448 0
448 444 -254 0
-448 444 254 0
448 -444 254 0
-448 -444 -254 0
444 -449 0
448 -449 0
-444 -448 449 0
137 -450 0
20 -450 0
-137 -20 450 0
-449 435 0
-450 435 0
449 450 -435 0
437 -451 0
441 -451 0
445 -451 0
448 -451 0
-437 -441 -445 -448 451 0
450 -452 0
-450 452 0
434 -453 0
451 -453 0
-434 -451 453 0
-453 454 0
-435 454 0
453 435 -454 0
21 138 -457 0
-21 138 457 0
21 -138 457 0
-21 -138 -457 0
457 454 -255 0
-457 454 255 0
457 -454 255 0
-457 -454 -255 0
454 -458 0
457 -458 0
-454 -457 458 0
138 -459 0
21 -459 0
-138 -21 459 0
-458 456 0
-459 456 0
458 459 -456 0
22 139 -461 0
-22 139 461 0
22 -139 461 0
-22 -139 -461 0
461 456 -256 0
-461 456 256 0
461 -456 256 0
-461 -456 -256 0
456 -462 0
461 -462 0
-456 -461 462 0
139 -463 0
22 -463 0
-139 -22 463 0
-462 460 0
-463 460 0
462 463 -460 0
23 140 -465 0
-23 140 465 0
23 -140 465 0
-23 -140 -465 0
465 460 -257 0
-465 460 257 0
465 -460 257 0
-465 -460 -257 0
460 -466 0
465 -466 0
-460 -465 466 0
140 -467 0
23 -467 0
-140 -23 467 0
-466 464 0
-467 464 0
466 467 -464 0
24 141 -468 0
-24 141 468 0
24 -141 468 0
-24 -141 -468 0
468 464 -258 0
-468 464 258 0
468 -464 258 0
-468 -464 -258 0
464 -469 0
468 -469 0
-464 -468 469 0
141 -470 0
24 -470 0
-141 -24 470 0
-469 455 0
-470 455 0
469 470 -455 0
457 -471 0
461 -471 0
465 -471 0
468 -471 0
-457 -461 -465 -468 471 0
470 -472 0
-470 472 0
454 -473 0
471 -473 0
-454 -471 473 0
-473 474 0
-455 474 0
473 455 -474 0
25 142 -477 0
-25 142 477 0
25 -142 477 0
-25 -142 -477 0
477 474 -259 0
-477 474 259 0
477 -474 259 0
-477 -474 -259 0
474 -478 0
477 -478 0
-474 -477 478 0
142 -479 0
25 -479 0
-142 -25 479 0
-478 476 0
-479 476 0
478 479 -476 0
26 143 -481 0
-26 143 481 0
26 -143 481 0
-26 -143 -481 0
481 476 -260 0
-481 476 260 0
481 -476 260 0
-481 -476 -260 0
476 -482 0
481 -482 0
-476 -481 482 0
143 -483 0
26 -483 0
-143 -26 483 0
-482 480 0
-483 480 0
482 483 -480 0
27 144 -485 0
-27 144 485 0
27 -144 485 0
-27 -144 -485 0
485 480 -261 0
-485 480 261 0
485 -480 261 0
-485 -480 -261 0
480 -486 0
485 -486 0
-480 -485 486 0
144 -487 0
27 -487 0
-144 -27 487 0
-486 484 0
-487 484 0
486 487 -484 0
28 145 -488 0
-28 145 488 0
28 -145 488 0
-28 -145 -488 0
488 484 -262 0
-488 484 262 0
488 -484 262 0
-488 -484 -262 0
484 -489 0
488 -489 0
-484 -488 489 0
145 -490 0
28 -490 0
-145 -28 490 0
-489 475 0
-490 475 0
489 490 -475 0
477 -491 0
481 -491 0
485 -491 0
488 -491 0
-477 -481 -485 -488 491 0
490 -492 0
-490 492 0
474 -493 0
491 -493 0
-474 -491 493 0
-493 494 0
-475 494 0
493 475 -494 0
29 146 -497 0
-29 146 497 0
29 -146 497 0
-29 -146 -497 0
497 494 -263 0
-497 494 263 0
497 -494 263 0
-497 -494 -263 0
494 -498 0
497 -498 0
-494 -497 498 0
146 -499 0
29 -499 0
-146 -29 499 0
-498 496 0
-499 496 0
498 499 -496 0
30 147 -501 0
-30 147 501 0
30 -147 501 0
-30 -147 -501 0
501 496 -264 0
-501 496 264 0
501 -496 264 0
-501 -496 -264 0
496 -502 0
501 -502 0
-496 -501 502 0
147 -503 0
30 -503 0
-147 -30 503 0
-502 500 0
-503 500 0
502 503 -500 0
31 148 -505 0
-31 148 505 0
31 -148 505 0
-31 -148 -505 0
505 500 -265 0
-505 500 265 0
505 -500 265 0
-505 -500 -265 0
500 -506 0
505 -506 0
-500 -505 506 0
148 -507 0
31 -507 0
-148 -31 507 0
-506 504 0
-507 504 0
506 507 -504 0
32 149 -508 0
-32 149 508 0
32 -149 508 0
-32 -149 -508 0
508 504 -266 0
-508 504 266 0
508 -504 266 0
-508 -504 -266 0
504 -509 0
508 -509 0
-504 -508 509 0
149 -510 0
32 -510 0
-149 -32 510 0
-509 495 0
-510 495 0
509 510 -495 0
497 -511 0
501 -511 0
505 -511 0
508 -511 0
-497 -501 -505 -508 511 0
510 -512 0
-510 512 0
494 -513 0
511 -513 0
-494 -511 513 0
-513 514 0
-495 514 0
513 495 -514 0
33 150 -517 0
-33 150 517 0
33 -150 517 0
-33 -150 -517 0
517 514 -267 0
-517 514 267 0
517 -514 267 0
-517 -514 -267 0
514 -518 0
517 -518 0
-514 -517 518 0
150 -519 0
33 -519 0
-150 -33 519 0
-518 516 0
-519 516 0
518 519 -516 0
34 151 -521 0
-34 151 521 0
34 -151 521 0
-34 -151 -521 0
521 516 -268 0
-521 516 268 0
521 -516 268 0
-521 -516 -268 0
516 -522 0
521 -522 0
-516 -521 522 0
151 -523 0
34 -523 0
-151 -34 523 0
-522 520 0
-523 520 0
522 523 -520 0
35 152 -525 0
-35 152 525 0
35 -152 525 0
-35 -152 -525 0
525 520 -269 0
-525 520 269 0
525 -520 269 0
-525 -520 -269 0
520 -526 0
525 -526 0
-520 -525 526 0
152 -527 0
35 -527 0
-152 -35 527 0
-526 524 0
-527 524 0
526 527 -524 0
36 153 -528 0
-36 153 528 0
36 -153 528 0
-36 -153 -528 0
528 524 -270 0
-528 524 270 0
528 -524 270 0
-528 -524 -270 0
524 -529 0
528 -529 0
-524 -528 529 0
153 -530 0
36 -530 0
-153 -36 530 0
-529 515 0
-530 515 0
529 530 -515 0
517 -531 0
521 -531 0
525 -531 0
528 -531 0
-517 -521 -525 -528 531 0
530 -532 0
-530 532 0
514 -533 0
531 -533 0
-514 -531 533 0
-533 534 0
-515 534 0
533 515 -534 0
37 154 -537 0
-37 154 537 0
37 -154 537 0
-37 -154 -537 0
537 534 -271 0
-537 534 271 0
537 -534 271 0
-537 -534 -271 0
534 -538 0
537 -538 0
-534 -537 538 0
154 -539 0
37 -539 0
-154 -37 539 0
-538 536 0
-539 536 0
538 539 -536 0
38 155 -541 0
-38 155 541 0
38 -155 541 0
-38 -155 -541 0
541 536 -272 0
-541 536 272 0
541 -536 272 0
-541 -536 -272 0
536 -542 0
541 -542 0
-536 -541 542 0
155 -543 0
38 -543 0
-155 -38 543 0
-542 540 0
-543 540 0
542 543 -540 0
39 156 -545 0
-39 156 545 0
39 -156 545 0
-39 -156 -545 0
545 540 -273 0
-545 540 273 0
545 -540 273 0
-545 -540 -273 0
540 -546 0
545 -546 0
-540 -545 546 0
156 -547 0
39 -547 0
-156 -39 547 0
-546 544 0
-547 544 0
546 547 -544 0
40 157 -548 0
-40 157 548 0
40 -157 548 0
-40 -157 -548 0
548 544 -274 0
-548 544 274 0
548 -544 274 0
-548 -544 -274 0
544 -549 0
548 -549 0
-544 -548 549 0
157 -550 0
40 -550 0
-157 -40 550 0
-549 535 0
-550 535 0
549 550 -535 0
537 -551 0
541 -551 0
545 -551 0
548 -551 0
-537 -541 -545 -548 551 0
550 -552 0
-550 552 0
534 -553 0
551 -553 0
-534 -551 553 0
-553 554 0
-535 554 0
553 535 -554 0
41 158 -557 0
-41 158 557 0
41 -158 557 0
-41 -158 -557 0
557 554 -275 0
-557 554 275 0
557 -554 275 0
-557 -554 -275 0
554 -558 0
557 -558 0
-554 -557 558 0
158 -559 0
41 -559 0
-158 -41 559 0
-558 556 0
-559 556 0
558 559 -556 0
42 159 -561 0
-42 159 561 0
42 -159 561 0
-42 -159 -561 0
561 556 -276 0
-561 556 276 0
561 -556 276 0
-561 -556 -276 0
556 -562 0
561 -562 0
-556 -561 562 0
159 -563 0
42 -563 0
-159 -42 563 0
-562 560 0
-563 560 0
562 563 -560 0
43 160 -565 0
-43 160 565 0
43 -160 565 0
-43 -160 -565 0
565 560 -277 0
-565 560 277 0
565 -560 277 0
-565 -560 -277 0
560 -566 0
565 -566 0
-560 -565 566 0
160 -567 0
43 -567 0
-160 -43 567 0
-566 564 0
-567 564 0
566 567 -564 0
44 161 -568 0
-44 161 568 0
44 -161 568 0
-44 -161 -568 0
568 564 -278 0
-568 564 278 0
568 -564 278 0
-568 -564 -278 0
564 -569 0
568 -569 0
-564 -568 569 0
161 -570 0
44 -570 0
-161 -44 570 0
-569 555 0
-570 555 0
569 570 -555 0
557 -571 0
561 -571 0
565 -571 0
568 -571 0
-557 -561 -565 -568 571 0
570 -572 0
-570 572 0
554 -573 0
571 -573 0
-554 -571 573 0
-573 574 0
-555 574 0
573 555 -574 0
45 162 -577 0
-45 162 577 0
45 -162 577 0
-45 -162 -577 0
577 574 -279 0
-577 574 279 0
577 -574 279 0
-577 -574 -279 0
574 -578 0
577 -578 0
-574 -577 578 0
162 -579 0
45 -579 0
-162 -45 579 0
-578 576 0
-579 576 0
578 579 -576 0
46 163 -581 0
-46 163 581 0
46 -163 581 0
-46 -163 -581 0
581 576 -280 0
-581 576 280 0
581 -576 280 0
-581 -576 -280 0
576 -582 0
581 -582 0
-576 -581 582 0
163 -583 0
46 -583 0
-163 -46 583 0
-582 580 0
-583 580 0
582 583 -580 0
47 164 -585 0
-47 164 585 0
47 -164 585 0
-47 -164 -585 0
585 580 -281 0
-585 580 281 0
585 -580 281 0
-585 -580 -281 0
580 -586 0
585 -586 0
-580 -585 586 0
164 -587 0
47 -587 0
-164 -47 587 0
-586 584 0
-587 584 0
586 587 -584 0
48 165 -588 0
-48 165 588 0
48 -165 588 0
-48 -165 -588 0
588 584 -282 0
-588 584 282 0
588 -584 282 0
-588 -584 -282 0
584 -589 0
588 -589 0
-584 -588 589 0
165 -590 0
48 -590 0
-165 -48 590 0
-589 575 0
-590 575 0
589 590 -575 0
577 -591 0
581 -591 0
585 -591 0
588 -591 0
-577 -581 -585 -588 591 0
590 -592 0
-590 592 0
574 -593 0
591 -593 0
-574 -591 593 0
-593 594 0
-575 594 0
593 575 -594 0
49 166 -597 0
-49 166 597 0
49 -166 597 0
-49 -166 -597 0
597 594 -283 0
-597 594 283 0
597 -594 283 0
-597 -594 -283 0
594 -598 0
597 -598 0
-594 -597 598 0
166 -599 0
49 -599 0
-166 -49 599 0
-598 596 0
-599 596 0
598 599 -596 0
50 167 -601 0
-50 167 601 0
50 -167 601 0
-50 -167 -601 0
601 596 -284 0
-601 596 284 0
601 -596 284 0
-601 -596 -284 0
596 -602 0
601 -602 0
-596 -601 602 0
167 -603 0
50 -603 0
-167 -50 603 0
-602 600 0
-603 600 0
602 603 -600 0
51 168 -605 0
-51 168 605 0
51 -168 605 0
-51 -168 -605 0
605 600 -285 0
-605 600 285 0
605 -600 285 0
-605 -600 -285 0
600 -606 0
605 -606 0
-600 -605 606 0
168 -607 0
51 -607 0
-168 -51 607 0
-606 604 0
-607 604 0
606 607 -604 0
52 169 -608 0
-52 169 608 0
52 -169 608 0
-52 -169 -608 0
608 604 -286 0
-608 604 286 0
608 -604 286 0
-608 -604 -286 0
604 -609 0
608 -609 0
-604 -608 609 0
169 -610 0
52 -610 0
-169 -52 610 0
-609 595 0
-610 595 0
609 610 -595 0
597 -611 0
601 -611 0
605 -611 0
608 -611 0
-597 -601 -605 -608 611 0
610 -612 0
-610 612 0
594 -613 0
611 -613 0
-594 -611 613 0
-613 614 0
-595 614 0
613 595 -614 0
53 170 -617 0
-53 170 617 0
53 -170 617 0
-53 -170 -617 0
617 614 -287 0
-617 614 287 0
617 -614 287 0
-617 -614 -287 0
614 -618 0
617 -618 0
-614 -617 618 0
170 -619 0
53 -619 0
-170 -53 619 0
-618 616 0
-619 616 0
618 619 -616 0
54 171 -621 0
-54 171 621 0
54 -171 621 0
-54 -171 -621 0
621 616 -288 0
-621 616 288 0
621 -616 288 0
-621 -616 -288 0
616 -622 0
621 -622 0
-616 -621 622 0
171 -623 0
54 -623 0
-171 -54 623 0
-622 620 0
-623 620 0
622 623 -620 0
55 172 -625 0
-55 172 625 0
55 -172 625 0
-55 -172 -625 0
625 620 -289 0
-625 620 289 0
625 -620 289 0
-625 -620 -289 0
620 -626 0
625 -626 0
-620 -625 626 0
172 -627 0
55 -627 0
-172 -55 627 0
-626 624 0
-627 624 0
626 627 -624 0
56 173 -628 0
-56 173 628 0
56 -173 628 0
-56 -173 -628 0
628 624 -290 0
-628 624 290 0
628 -624 290 0
-628 -624 -290 0
624 -629 0
628 -629 0
-624 -628 629 0
173 -630 0
56 -630 0
-173 -56 630 0
-629 615 0
-630 615 0
629 630 -615 0
617 -631 0
621 -631 0
625 -631 0
628 -631 0
-617 -621 -625 -628 631 0
630 -632 0
-630 632 0
614 -633 0
631 -633 0
-614 -631 633 0
-633 634 0
-615 634 0
633 615 -634 0
57 174 -637 0
-57 174 637 0
57 -174 637 0
-57 -174 -637 0
637 634 -291 0
-637 634 291 0
637 -634 291 0
-637 -634 -291 0
634 -638 0
637 -638 0
-634 -637 638 0
174 -639 0
57 -639 0
-174 -57 639 0
-638 636 0
-639 636 0
638 639 -636 0
58 175 -641 0
-58 175 641 0
58 -175 641 0
-58 -175 -641 0
641 636 -292 0
-641 636 292 0
641 -636 292 0
-641 -636 -292 0
636 -642 0
641 -642 0
-636 -641 642 0
175 -643 0
58 -643 0
-175 -58 643 0
-642 640 0
-643 640 0
642 643 -640 0
59 176 -645 0
-59 176 645 0
59 -176 645 0
-59 -176 -645 0
645 640 -293 0
-645 640 293 0
645 -640 293 0
-645 -640 -293 0
640 -646 0
645 -646 0
-640 -645 646 0
176 -647 0
59 -647 0
-176 -59 647 0
-646 644 0
-647 644 0
646 647 -644 0
60 177 -648 0
-60 177 648 0
60 -177 648 0
-60 -177 -648 0
648 644 -294 0
-648 644 294 0
648 -644 294 0
-648 -644 -294 0
644 -649 0
648 -649 0
-644 -648 649 0
177 -650 0
60 -650 0
-177 -60 650 0
-649 635 0
-650 635 0
649 650 -635 0
637 -651 0
641 -651 0
645 -651 0
648 -651 0
-637 -641 -645 -648 651 0
650 -652 0
-650 652 0
634 -653 0
651 -653 0
-634 -651 653 0
-653 654 0
-635 654 0
653 635 -654 0
61 178 -657 0
-61 178 657 0
61 -178 657 0
-61 -178 -657 0
657 654 -295 0
-657 654 295 0
657 -654 295 0
-657 -654 -295 0
654 -658 0
657 -658 0
-654 -657 658 0
178 -659 0
61 -659 0
-178 -61 659 0
-658 656 0
-659 656 0
658 659 -656 0
62 179 -661 0
-62 179 661 0
62 -179 661 0
-62 -179 -661 0
661 656 -296 0
-661 656 296 0
661 -656 296 0
-661 -656 -296 0
656 -662 0
661 -662 0
-656 -661 662 0
179 -663 0
62 -663 0
-179 -62 663 0
-662 660 0
-663 660 0
662 663 -660 0
63 180 -665 0
-63 180 665 0
63 -180 665 0
-63 -180 -665 0
665 660 -297 0
-665 660 297 0
665 -660 297 0
-665 -660 -297 0
660 -666 0
665 -666 0
-660 -665 666 0
180 -667 0
63 -667 0
-180 -63 667 0
-666 664 0
-667 664 0
666 667 -664 0
64 181 -668 0
-64 181 668 0
64 -181 668 0
-64 -181 -668 0
668 664 -298 0
-668 664 298 0
668 -664 298 0
-668 -664 -298 0
664 -669 0
668 -669 0
-664 -668 669 0
181 -670 0
64 -670 0
-181 -64 670 0
-669 655 0
-670 655 0
669 670 -655 0
657 -671 0
661 -671 0
665 -671 0
668 -671 0
-657 -661 -665 -668 671 0
670 -672 0
-670 672 0
654 -673 0
671 -673 0
-654 -671 673 0
-673 674 0
-655 674 0
673 655 -674 0
65 182 -677 0
-65 182 677 0
65 -182 677 0
-65 -182 -677 0
677 674 -299 0
-677 674 299 0
677 -674 299 0
-677 -674 -299 0
674 -678 0
677 -678 0
-674 -677 678 0
182 -679 0
65 -679 0
-182 -65 679 0
-678 676 0
-679 676 0
678 679 -676 0
66 183 -681 0
-66 183 681 0
66 -183 681 0
-66 -183 -681 0
681 676 -300 0
-681 676 300 0
681 -676 300 0
-681 -676 -300 0
676 -682 0
681 -682 0
-676 -681 682 0
183 -683 0
66 -683 0
-183 -66 683 0
-682 680 0
-683 680 0
682 683 -680 0
67 184 -685 0
-67 184 685 0
67 -184 685 0
-67 -184 -685 0
685 680 -301 0
-685 680 301 0
685 -680 301 0
-685 -680 -301 0
680 -686 0
685 -686 0
-680 -685 686 0
184 -687 0
67 -687 0
-184 -67 687 0
-686 684 0
-687 684 0
686 687 -684 0
68 185 -688 0
-68 185 688 0
68 -185 688 0
-68 -185 -688 0
688 684 -302 0
-688 684 302 0
688 -684 302 0
-688 -684 -302 0
684 -689 0
688 -689 0
-684 -688 689 0
185 -690 0
68 -690 0
-185 -68 690 0
-689 675 0
-690 675 0
689 690 -675 0
677 -691 0
681 -691 0
685 -691 0
688 -691 0
-677 -681 -685 -688 691 0
690 -692 0
-690 692 0
674 -693 0
691 -693 0
-674 -691 693 0
-693 694 0
-675 694 0
693 675 -694 0
69 186 -697 0
-69 186 697 0
69 -186 697 0
-69 -186 -697 0
697 694 -303 0
-697 694 303 0
697 -694 303 0
-697 -694 -303 0
694 -698 0
697 -698 0
-694 -697 698 0
186 -699 0
69 -699 0
-186 -69 699 0
-698 696 0
-699 696 0
698 699 -696 0
70 187 -701 0
-70 187 701 0
70 -187 701 0
-70 -187 -701 0
701 696 -304 0
-701 696 304 0
701 -696 304 0
-701 -696 -304 0
696 -702 0
701 -702 0
-696 -701 702 0
187 -703 0
70 -703 0
-187 -70 703 0
-702 700 0
-703 700 0
702 703 -700 0
71 188 -705 0
-71 188 705 0
71 -188 705 0
-71 -188 -705 0
705 700 -305 0
-705 700 305 0
705 -700 305 0
-705 -700 -305 0
700 -706 0
705 -706 0
-700 -705 706 0
188 -707 0
71 -707 0
-188 -71 707 0
-706 704 0
-707 704 0
706 707 -704 0
72 189 -708 0
-72 189 708 0
72 -189 708 0
-72 -189 -708 0
708 704 -306 0
-708 704 306 0
708 -704 306 0
-708 -704 -306 0
704 -709 0
708 -709 0
-704 -708 709 0
189 -710 0
72 -710 0
-189 -72 710 0
-709 695 0
-710 695 0
709 710 -695 0
697 -711 0
701 -711 0
705 -711 0
708 -711 0
-697 -701 -705 -708 711 0
710 -712 0
-710 712 0
694 -713 0
711 -713 0
-694 -711 713 0
-713 714 0
-695 714 0
713 695 -714 0
73 190 -717 0
-73 190 717 0
73 -190 717 0
-73 -190 -717 0
717 714 -307 0
-717 714 307 0
717 -714 307 0
-717 -714 -307 0
714 -718 0
717 -718 0
-714 -717 718 0
190 -719 0
73 -719 0
-190 -73 719 0
-718 716 0
-719 716 0
718 719 -716 0
74 191 -721 0
-74 191 721 0
74 -191 721 0
-74 -191 -721 0
721 716 -308 0
-721 716 308 0
721 -716 308 0
-721 -716 -308 0
716 -722 0
721 -722 0
-716 -721 722 0
191 -723 0
74 -723 0
-191 -74 723 0
-722 720 0
-723 720 0
722 723 -720 0
75 192 -725 0
-75 192 725 0
75 -192 725 0
-75 -192 -725 0
725 720 -309 0
-725 720 309 0
725 -720 309 0
-725 -720 -309 0
720 -726 0
725 -726 0
-720 -725 726 0
192 -727 0
75 -727 0
-192 -75 727 0
-726 724 0
-727 724 0
726 727 -724 0
76 193 -728 0
-76 193 728 0
76 -193 728 0
-76 -193 -728 0
728 724 -310 0
-728 724 310 0
728 -724 310 0
-728 -724 -310 0
724 -729 0
728 -729 0
-724 -728 729 0
193 -730 0
76 -730 0
-193 -76 730 0
-729 715 0
-730 715 0
729 730 -715 0
717 -731 0
721 -731 0
725 -731 0
728 -731 0
-717 -721 -725 -728 731 0
730 -732 0
-730 732 0
714 -733 0
731 -733 0
-714 -731 733 0
-733 734 0
-715 734 0
733 715 -734 0
77 194 -737 0
-77 194 737 0
77 -194 737 0
-77 -194 -737 0
737 734 -311 0
-737 734 311 0
737 -734 311 0
-737 -734 -311 0
734 -738 0
737 -738 0
-734 -737 738 0
194 -739 0
77 -739 0
-194 -77 739 0
-738 736 0
-739 736 0
738 739 -736 0
78 195 -741 0
-78 195 741 0
78 -195 741 0
-78 -195 -741 0
741 736 -312 0
-741 736 312 0
741 -736 312 0
-741 -736 -312 0
736 -742 0
741 -742 0
-736 -741 742 0
195 -743 0
78 -743 0
-195 -78 743 0
-742 740 0
-743 740 0
742 743 -740 0
79 196 -745 0
-79 196 745 0
79 -196 745 0
-79 -196 -745 0
745 740 -313 0
-745 740 313 0
745 -740 313 0
-745 -740 -313 0
740 -746 0
745 -746 0
-740 -745 746 0
196 -747 0
79 -747 0
-196 -79 747 0
-746 744 0
-747 744 0
746 747 -744 0
80 197 -748 0
-80 197 748 0
80 -197 748 0
-80 -197 -748 0
748 744 -314 0
-748 744 314 0
748 -744 314 0
-748 -744 -314 0
744 -749 0
748 -749 0
-744 -748 749 0
197 -750 0
80 -750 0
-197 -80 750 0
-749 735 0
-750 735 0
749 750 -735 0
737 -751 0
741 -751 0
745 -751 0
748 -751 0
-737 -741 -745 -748 751 0
750 -752 0
-750 752 0
734 -753 0
751 -753 0
-734 -751 753 0
-753 754 0
-735 754 0
753 735 -754 0
81 198 -757 0
-81 198 757 0
81 -198 757 0
-81 -198 -757 0
757 754 -315 0
-757 754 315 0
757 -754 315 0
-757 -754 -315 0
754 -758 0
757 -758 0
-754 -757 758 0
198 -759 0
81 -759 0
-198 -81 759 0
-758 756 0
-759 756 0
758 759 -756 0
82 199 -761 0
-82 199 761 0
82 -199 761 0
-82 -199 -761 0
761 756 -316 0
-761 756 316 0
761 -756 316 0
-761 -756 -316 0
756 -762 0
761 -762 0
-756 -761 762 0
199 -763 0
82 -763 0
-199 -82 763 0
-762 760 0
-763 760 0
762 763 -760 0
83 200 -765 0
-83 200 765 0
83 -200 765 0
-83 -200 -765 0
765 760 -317 0
-765 760 317 0
765 -760 317 0
-765 -760 -317 0
760 -766 0
765 -766 0
-760 -765 766 0
200 -767 0
83 -767 0
-200 -83 767 0
-766 764 0
-767 764 0
766 767 -764 0
84 201 -768 0
-84 201 768 0
84 -201 768 0
-84 -201 -768 0
768 764 -318 0
-768 764 318 0
768 -764 318 0
-768 -764 -318 0
764 -769 0
768 -769 0
-764 -768 769 0
201 -770 0
84 -770 0
-201 -84 770 0
-769 755 0
-770 755 0
769 770 -755 0
757 -771 0
761 -771 0
765 -771 0
768 -771 0
-757 -761 -765 -768 771 0
770 -772 0
-770 772 0
754 -773 0
771 -773 0
-754 -771 773 0
-773 774 0
-755 774 0
773 755 -774 0
85 202 -777 0
-85 202 777 0
85 -202 777 0
-85 -202 -777 0
777 774 -319 0
-777 774 319 0
777 -774 319 0
-777 -774 -319 0
774 -778 0
777 -778 0
-774 -777 778 0
202 -779 0
85 -779 0
-202 -85 779 0
-778 776 0
-779 776 0
778 779 -776 0
86 203 -781 0
-86 203 781 0
86 -203 781 0
-86 -203 -781 0
781 776 -320 0
-781 776 320 0
781 -776 320 0
-781 -776 -320 0
776 -782 0
781 -782 0
-776 -781 782 0
203 -783 0
86 -783 0
-203 -86 783 0
-782 780 0
-783 780 0
782 783 -780 0
87 204 -785 0
-87 204 785 0
87 -204 785 0
-87 -204 -785 0
785 780 -321 0
-785 780 321 0
785 -780 321 0
-785 -780 -321 0
780 -786 0
785 -786 0
-780 -785 786 0
204 -787 0
87 -787 0
-204 -87 787 0
-786 784 0
-787 784 0
786 787 -784 0
88 205 -788 0
-88 205 788 0
88 -205 788 0
-88 -205 -788 0
788 784 -322 0
-788 784 322 0
788 -784 322 0
-788 -784 -322 0
784 -789 0
788 -789 0
-784 -788 789 0
205 -790 0
88 -790 0
-205 -88 790 0
-789 775 0
-790 775 0
789 790 -775 0
777 -791 0
781 -791 0
785 -791 0
788 -791 0
-777 -781 -785 -788 791 0
790 -792 0
-790 792 0
774 -793 0
791 -793 0
-774 -791 793 0
-793 794 0
-775 794 0
793 775 -794 0
89 206 -797 0
-89 206 797 0
89 -206 797 0
-89 -206 -797 0
797 794 -323 0
-797 794 323 0
797 -794 323 0
-797 -794 -323 0
794 -798 0
797 -798 0
-794 -797 798 0
206 -799 0
89 -799 0
-206 -89 799 0
-798 796 0
-799 796 0
798 799 -796 0
90 207 -801 0
-90 207 801 0
90 -207 801 0
-90 -207 -801 0
801 796 -324 0
-801 796 324 0
801 -796 324 0
-801 -796 -324 0
796 -802 0
801 -802 0
-796 -801 802 0
207 -803 0
90 -803 0
-207 -90 803 0
-802 800 0
-803 800 0
802 803 -800 0
91 208 -805 0
-91 208 805 0
91 -208 805 0
-91 -208 -805 0
805 800 -325 0
-805 800 325 0
805 -800 325 0
-805 -800 -325 0
800 -806 0
805 -806 0
-800 -805 806 0
208 -807 0
91 -807 0
-208 -91 807 0
-806 804 0
-807 804 0
806 807 -804 0
92 209 -808 0
-92 209 808 0
92 -209 808 0
-92 -209 -808 0
808 804 -326 0
-808 804 326 0
808 -804 326 0
-808 -804 -326 0
804 -809 0
808 -809 0
-804 -808 809 0
209 -810 0
92 -810 0
-209 -92 810 0
-809 795 0
-810 795 0
809 810 -795 0
797 -811 0
801 -811 0
805 -811 0
808 -811 0
-797 -801 -805 -808 811 0
810 -812 0
-810 812 0
794 -813 0
811 -813 0
-794 -811 813 0
-813 814 0
-795 814 0
813 795 -814 0
93 210 -817 0
-93 210 817 0
93 -210 817 0
-93 -210 -817 0
817 814 -327 0
-817 814 327 0
817 -814 327 0
-817 -814 -327 0
814 -818 0
817 -818 0
-814 -817 818 0
210 -819 0
93 -819 0
-210 -93 819 0
-818 816 0
-819 816 0
818 819 -816 0
94 211 -821 0
-94 211 821 0
94 -211 821 0
-94 -211 -821 0
821 816 -328 0
-821 816 328 0
821 -816 328 0
-821 -816 -328 0
816 -822 0
821 -822 0
-816 -821 822 0
211 -823 0
94 -823 0
-211 -94 823 0
-822 820 0
-823 820 0
822 823 -820 0
95 212 -825 0
-95 212 825 0
95 -212 825 0
-95 -212 -825 0
825 820 -329 0
-825 820 329 0
825 -820 329 0
-825 -820 -329 0
820 -826 0
825 -826 0
-820 -825 826 0
212 -827 0
95 -827 0
-212 -95 827 0
-826 824 0
-827 824 0
826 827 -824 0
96 213 -828 0
-96 213 828 0
96 -213 828 0
-96 -213 -828 0
828 824 -330 0
-828 824 330 0
828 -824 330 0
-828 -824 -330 0
824 -829 0
828 -829 0
-824 -828 829 0
213 -830 0
96 -830 0
-213 -96 830 0
-829 815 0
-830 815 0
829 830 -815 0
817 -831 0
821 -831 0
825 -831 0
828 -831 0
-817 -821 -825 -828 831 0
830 -832 0
-830 832 0
814 -833 0
831 -833 0
-814 -831 833 0
-833 834 0
-815 834 0
833 815 -834 0
97 214 -837 0
-97 214 837 0
97 -214 837 0
-97 -214 -837 0
837 834 -331 0
-837 834 331 0
837 -834 331 0
-837 -834 -331 0
834 -838 0
837 -838 0
-834 -837 838 0
214 -839 0
97 -839 0
-214 -97 839 0
-838 836 0
-839 836 0
838 839 -836 0
98 215 -841 0
-98 215 841 0
98 -215 841 0
-98 -215 -841 0
841 836 -332 0
-841 836 332 0
841 -836 332 0
-841 -836 -332 0
836 -842 0
841 -842 0
-836 -841 842 0
215 -843 0
98 -843 0
-215 -98 843 0
-842 840 0
-843 840 0
842 843 -840 0
99 216 -845 0
-99 216 845 0
99 -216 845 0
-99 -216 -845 0
845 840 -333 0
-845 840 333 0
845 -840 333 0
-845 -840 -333 0
840 -846 0
845 -846 0
-840 -845 846 0
216 -847 0
99 -847 0
-216 -99 847 0
-846 844 0
-847 844 0
846 847 -844 0
100 217 -848 0
-100 217 848 0
100 -217 848 0
-100 -217 -848 0
848 844 -334 0
-848 844 334 0
848 -844 334 0
-848 -844 -334 0
844 -849 0
848 -849 0
-844 -848 849 0
217 -850 0
100 -850 0
-217 -100 850 0
-849 835 0
-850 835 0
849 850 -835 0
837 -851 0
841 -851 0
845 -851 0
848 -851 0
-837 -841 -845 -848 851 0
850 -852 0
-850 852 0
834 -853 0
851 -853 0
-834 -851 853 0
-853 854 0
-835 854 0
853 835 -854 0
101 218 -857 0
-101 218 857 0
101 -218 857 0
-101 -218 -857 0
857 854 -335 0
-857 854 335 0
857 -854 335 0
-857 -854 -335 0
854 -858 0
857 -858 0
-854 -857 858 0
218 -859 0
101 -859 0
-218 -101 859 0
-858 856 0
-859 856 0
858 859 -856 0
102 219 -861 0
-102 219 861 0
102 -219 861 0
-102 -219 -861 0
861 856 -336 0
-861 856 336 0
861 -856 336 0
-861 -856 -336 0
856 -862 0
861 -862 0
-856 -861 862 0
219 -863 0
102 -863 0
-219 -102 863 0
-862 860 0
-863 860 0
862 863 -860 0
103 220 -865 0
-103 220 865 0
103 -220 865 0
-103 -220 -865 0
865 860 -337 0
-865 860 337 0
865 -860 337 0
-865 -860 -337 0
860 -866 0
865 -866 0
-860 -865 866 0
220 -867 0
103 -867 0
-220 -103 867 0
-866 864 0
-867 864 0
866 867 -864 0
104 221 -868 0
-104 221 868 0
104 -221 868 0
-104 -221 -868 0
868 864 -338 0
-868 864 338 0
868 -864 338 0
-868 -864 -338 0
864 -869 0
868 -869 0
-864 -868 869 0
221 -870 0
104 -870 0
-221 -104 870 0
-869 855 0
-870 855 0
869 870 -855 0
857 -871 0
861 -871 0
865 -871 0
868 -871 0
-857 -861 -865 -868 871 0
870 -872 0
-870 872 0
854 -873 0
871 -873 0
-854 -871 873 0
-873 874 0
-855 874 0
873 855 -874 0
105 222 -877 0
-105 222 877 0
105 -222 877 0
-105 -222 -877 0
877 874 -339 0
-877 874 339 0
877 -874 339 0
-877 -874 -339 0
874 -878 0
877 -878 0
-874 -877 878 0
222 -879 0
105 -879 0
-222 -105 879 0
-878 876 0
-879 876 0
878 879 -876 0
106 223 -881 0
-106 223 881 0
106 -223 881 0
-106 -223 -881 0
881 876 -340 0
-881 876 340 0
881 -876 340 0
-881 -876 -340 0
876 -882 0
881 -882 0
-876 -881 882 0
223 -883 0
106 -883 0
-223 -106 883 0
-882 880 0
-883 880 0
882 883 -880 0
107 224 -885 0
-107 224 885 0
107 -224 885 0
-107 -224 -885 0
885 880 -341 0
-885 880 341 0
885 -880 341 0
-885 -880 -341 0
880 -886 0
885 -886 0
-880 -885 886 0
224 -887 0
107 -887 0
-224 -107 887 0
-886 884 0
-887 884 0
886 887 -884 0
108 225 -888 0
-108 225 888 0
108 -225 888 0
-108 -225 -888 0
888 884 -342 0
-888 884 342 0
888 -884 342 0
-888 -884 -342 0
884 -889 0
888 -889 0
-884 -888 889 0
225 -890 0
108 -890 0
-225 -108 890 0
-889 875 0
-890 875 0
889 890 -875 0
877 -891 0
881 -891 0
885 -891 0
888 -891 0
-877 -881 -885 -888 891 0
890 -892 0
-890 892 0
874 -893 0
891 -893 0
-874 -891 893 0
-893 894 0
-875 894 0
893 875 -894 0
109 226 -897 0
-109 226 897 0
109 -226 897 0
-109 -226 -897 0
897 894 -343 0
-897 894 343 0
897 -894 343 0
-897 -894 -343 0
894 -898 0
897 -898 0
-894 -897 898 0
226 -899 0
109 -899 0
-226 -109 899 0
-898 896 0
-899 896 0
898 899 -896 0
110 227 -901 0
-110 227 901 0
110 -227 901 0
-110 -227 -901 0
901 896 -344 0
-901 896 344 0
901 -896 344 0
-901 -896 -344 0
896 -902 0
901 -902 0
-896 -901 902 0
227 -903 0
110 -903 0
-227 -110 903 0
-902 900 0
-903 900 0
902 903 -900 0
111 228 -905 0
-111 228 905 0
111 -228 905 0
-111 -228 -905 0
905 900 -345 0
-905 900 345 0
905 -900 345 0
-905 -900 -345 0
900 -906 0
905 -906 0
-900 -905 906 0
228 -907 0
111 -907 0
-228 -111 907 0
-906 904 0
-907 904 0
906 907 -904 0
112 229 -908 0
-112 229 908 0
112 -229 908 0
-112 -229 -908 0
908 904 -346 0
-908 904 346 0
908 -904 346 0
-908 -904 -346 0
904 -909 0
908 -909 0
-904 -908 909 0
229 -910 0
112 -910 0
-229 -112 910 0
-909 895 0
-910 895 0
909 910 -895 0
897 -911 0
901 -911 0
905 -911 0
908 -911 0
-897 -901 -905 -908 911 0
910 -912 0
-910 912 0
894 -913 0
911 -913 0
-894 -911 913 0
-913 914 0
-895 914 0
913 895 -914 0
113 230 -917 0
-113 230 917 0
113 -230 917 0
-113 -230 -917 0
917 914 -347 0
-917 914 347 0
917 -914 347 0
-917 -914 -347 0
914 -918 0
917 -918 0
-914 -917 918 0
230 -919 0
113 -919 0
-230 -113 919 0
-918 916 0
-919 916 0
918 919 -916 0
114 231 -921 0
-114 231 921 0
114 -231 921 0
-114 -231 -921 0
921 916 -348 0
-921 916 348 0
921 -916 348 0
-921 -916 -348 0
916 -922 0
921 -922 0
-916 -921 922 0
231 -923 0
114 -923 0
-231 -114 923 0
-922 920 0
-923 920 0
922 923 -920 0
115 232 -925 0
-115 232 925 0
115 -232 925 0
-115 -232 -925 0
925 920 -349 0
-925 920 349 0
925 -920 349 0
-925 -920 -349 0
920 -926 0
925 -926 0
-920 -925 926 0
232 -927 0
115 -927 0
-232 -115 927 0
-926 924 0
-927 924 0
926 927 -924 0
116 233 -928 0
-116 233 928 0
116 -233 928 0
-116 -233 -928 0
928 924 -350 0
-928 924 350 0
928 -924 350 0
-928 -924 -350 0
924 -929 0
928 -929 0
-924 -928 929 0
233 -930 0
116 -930 0
-233 -116 930 0
-929 915 0
-930 915 0
929 930 -915 0
917 -931 0
921 -931 0
925 -931 0
928 -931 0
-917 -921 -925 -928 931 0
930 -932 0
-930 932 0
914 -933 0
931 -933 0
-914 -931 933 0
-933 934 0
-915 934 0
933 915 -934 0
117 234 -936 0
-117 234 936 0
117 -234 936 0
-117 -234 -936 0
936 934 -351 0
-936 934 351 0
936 -934 351 0
-936 -934 -351 0
934 -937 0
936 -937 0
-934 -936 937 0
234 -938 0
117 -938 0
-234 -117 938 0
-937 935 0
-938 935 0
937 938 -935 0
936 -939 0
-936 939 0
938 -940 0
-938 940 0
934 -941 0
939 -941 0
-934 -939 941 0
-941 942 0
-935 942 0
941 935 -942 0
942 -352 0
-942 352 0
